NAME : 0
COMMENT : CVRP Instance
TYPE : CVRP
DIMENSION : 655
EDGE_WEIGHT_TYPE : EUC_2D
CAPACITY : 5
NODE_COORD_SECTION
1	500.0	500.0
2	346.0	793.0
3	692.0	966.0
4	171.0	666.0
5	287.0	795.0
6	133.0	668.0
7	704.0	959.0
8	400.0	795.0
9	195.0	897.0
10	845.0	931.0
11	829.0	724.0
12	300.0	860.0
13	218.0	829.0
14	116.0	780.0
15	237.0	631.0
16	126.0	681.0
17	825.0	922.0
18	315.0	913.0
19	271.0	769.0
20	530.0	917.0
21	156.0	900.0
22	265.0	808.0
23	171.0	742.0
24	388.0	776.0
25	153.0	664.0
26	393.0	855.0
27	320.0	751.0
28	594.0	862.0
29	213.0	810.0
30	723.0	924.0
31	192.0	877.0
32	661.0	910.0
33	153.0	729.0
34	334.0	812.0
35	558.0	944.0
36	502.0	783.0
37	266.0	747.0
38	23.0	753.0
39	180.0	584.0
40	702.0	854.0
41	354.0	649.0
42	412.0	709.0
43	721.0	928.0
44	168.0	674.0
45	364.0	640.0
46	375.0	727.0
47	247.0	977.0
48	332.0	853.0
49	664.0	929.0
50	646.0	901.0
51	248.0	723.0
52	116.0	628.0
53	123.0	690.0
54	247.0	539.0
55	715.0	966.0
56	314.0	712.0
57	237.0	747.0
58	202.0	679.0
59	409.0	946.0
60	684.0	879.0
61	142.0	576.0
62	204.0	636.0
63	440.0	817.0
64	697.0	882.0
65	772.0	977.0
66	177.0	889.0
67	341.0	787.0
68	391.0	725.0
69	82.0	764.0
70	734.0	834.0
71	352.0	732.0
72	646.0	553.0
73	102.0	631.0
74	354.0	612.0
75	374.0	865.0
76	421.0	812.0
77	335.0	835.0
78	646.0	931.0
79	560.0	910.0
80	702.0	965.0
81	273.0	790.0
82	329.0	750.0
83	300.0	586.0
84	850.0	855.0
85	235.0	683.0
86	393.0	953.0
87	389.0	923.0
88	341.0	851.0
89	781.0	946.0
90	329.0	862.0
91	472.0	873.0
92	356.0	895.0
93	194.0	733.0
94	53.0	777.0
95	133.0	596.0
96	606.0	971.0
97	273.0	812.0
98	223.0	812.0
99	156.0	820.0
100	317.0	650.0
101	177.0	790.0
102	389.0	747.0
103	663.0	944.0
104	336.0	940.0
105	284.0	739.0
106	737.0	977.0
107	249.0	956.0
108	433.0	852.0
109	294.0	856.0
110	285.0	879.0
111	280.0	818.0
112	175.0	885.0
113	295.0	747.0
114	669.0	902.0
115	763.0	969.0
116	138.0	632.0
117	193.0	593.0
118	220.0	818.0
119	145.0	800.0
120	739.0	960.0
121	72.0	672.0
122	752.0	940.0
123	639.0	894.0
124	329.0	726.0
125	799.0	987.0
126	118.0	343.0
127	660.0	917.0
128	382.0	741.0
129	242.0	626.0
130	164.0	824.0
131	350.0	881.0
132	509.0	886.0
133	190.0	416.0
134	72.0	656.0
135	353.0	659.0
136	132.0	677.0
137	364.0	771.0
138	893.0	900.0
139	140.0	645.0
140	411.0	757.0
141	397.0	805.0
142	171.0	644.0
143	488.0	625.0
144	260.0	816.0
145	764.0	980.0
146	149.0	657.0
147	769.0	855.0
148	716.0	925.0
149	191.0	843.0
150	566.0	966.0
151	620.0	908.0
152	358.0	727.0
153	268.0	705.0
154	406.0	927.0
155	139.0	943.0
156	192.0	762.0
157	549.0	931.0
158	177.0	664.0
159	433.0	707.0
160	301.0	753.0
161	361.0	840.0
162	120.0	764.0
163	178.0	664.0
164	109.0	751.0
165	318.0	529.0
166	419.0	952.0
167	309.0	737.0
168	289.0	787.0
169	350.0	812.0
170	88.0	794.0
171	151.0	658.0
172	185.0	883.0
173	411.0	467.0
174	603.0	872.0
175	342.0	708.0
176	317.0	747.0
177	579.0	988.0
178	329.0	555.0
179	361.0	731.0
180	37.0	706.0
181	394.0	558.0
182	154.0	745.0
183	324.0	703.0
184	370.0	912.0
185	727.0	900.0
186	150.0	702.0
187	383.0	694.0
188	151.0	679.0
189	149.0	654.0
190	144.0	638.0
191	269.0	635.0
192	212.0	842.0
193	217.0	644.0
194	250.0	597.0
195	835.0	953.0
196	620.0	949.0
197	324.0	910.0
198	344.0	793.0
199	176.0	922.0
200	370.0	746.0
201	204.0	682.0
202	262.0	830.0
203	328.0	484.0
204	385.0	931.0
205	706.0	957.0
206	201.0	655.0
207	300.0	737.0
208	379.0	791.0
209	728.0	720.0
210	296.0	858.0
211	154.0	613.0
212	663.0	942.0
213	135.0	908.0
214	805.0	910.0
215	646.0	872.0
216	113.0	692.0
217	349.0	554.0
218	290.0	737.0
219	430.0	668.0
220	588.0	977.0
221	236.0	656.0
222	370.0	871.0
223	286.0	727.0
224	89.0	671.0
225	136.0	667.0
226	195.0	761.0
227	188.0	705.0
228	377.0	846.0
229	375.0	728.0
230	269.0	763.0
231	235.0	694.0
232	452.0	826.0
233	281.0	909.0
234	215.0	585.0
235	325.0	707.0
236	419.0	817.0
237	392.0	704.0
238	152.0	544.0
239	136.0	580.0
240	643.0	996.0
241	198.0	731.0
242	155.0	556.0
243	345.0	859.0
244	99.0	666.0
245	519.0	722.0
246	168.0	757.0
247	295.0	824.0
248	676.0	800.0
249	229.0	686.0
250	772.0	941.0
251	294.0	729.0
252	637.0	926.0
253	464.0	795.0
254	346.0	681.0
255	327.0	758.0
256	665.0	965.0
257	98.0	690.0
258	852.0	860.0
259	770.0	889.0
260	124.0	598.0
261	235.0	831.0
262	680.0	969.0
263	323.0	800.0
264	525.0	931.0
265	120.0	772.0
266	839.0	978.0
267	214.0	652.0
268	660.0	965.0
269	297.0	626.0
270	236.0	738.0
271	148.0	850.0
272	138.0	699.0
273	336.0	773.0
274	605.0	738.0
275	190.0	648.0
276	119.0	620.0
277	198.0	853.0
278	288.0	514.0
279	888.0	888.0
280	165.0	542.0
281	682.0	934.0
282	794.0	844.0
283	759.0	985.0
284	416.0	819.0
285	724.0	966.0
286	403.0	812.0
287	270.0	789.0
288	482.0	818.0
289	69.0	537.0
290	734.0	946.0
291	292.0	679.0
292	346.0	556.0
293	644.0	943.0
294	681.0	943.0
295	323.0	765.0
296	514.0	782.0
297	141.0	713.0
298	624.0	870.0
299	625.0	952.0
300	356.0	923.0
301	356.0	576.0
302	328.0	801.0
303	185.0	648.0
304	287.0	633.0
305	689.0	956.0
306	645.0	958.0
307	137.0	895.0
308	299.0	975.0
309	448.0	752.0
310	348.0	642.0
311	151.0	631.0
312	675.0	910.0
313	245.0	776.0
314	434.0	705.0
315	283.0	804.0
316	889.0	924.0
317	187.0	781.0
318	486.0	662.0
319	350.0	844.0
320	519.0	720.0
321	720.0	924.0
322	259.0	800.0
323	514.0	712.0
324	443.0	521.0
325	421.0	818.0
326	174.0	765.0
327	750.0	969.0
328	481.0	831.0
329	281.0	600.0
330	141.0	959.0
331	299.0	730.0
332	320.0	840.0
333	341.0	651.0
334	365.0	730.0
335	789.0	953.0
336	680.0	906.0
337	145.0	740.0
338	304.0	810.0
339	290.0	741.0
340	467.0	973.0
341	600.0	980.0
342	288.0	613.0
343	309.0	761.0
344	153.0	907.0
345	307.0	834.0
346	335.0	809.0
347	989.0	940.0
348	176.0	655.0
349	759.0	975.0
350	345.0	821.0
351	658.0	971.0
352	749.0	841.0
353	380.0	754.0
354	316.0	640.0
355	177.0	803.0
356	133.0	650.0
357	254.0	803.0
358	311.0	838.0
359	293.0	782.0
360	493.0	855.0
361	704.0	715.0
362	102.0	745.0
363	226.0	806.0
364	147.0	600.0
365	437.0	837.0
366	262.0	671.0
367	152.0	706.0
368	310.0	738.0
369	146.0	594.0
370	864.0	905.0
371	271.0	792.0
372	317.0	845.0
373	607.0	724.0
374	407.0	563.0
375	469.0	986.0
376	693.0	918.0
377	235.0	641.0
378	405.0	833.0
379	617.0	890.0
380	508.0	893.0
381	361.0	822.0
382	712.0	984.0
383	577.0	895.0
384	225.0	550.0
385	171.0	397.0
386	391.0	780.0
387	418.0	845.0
388	155.0	768.0
389	135.0	553.0
390	381.0	894.0
391	383.0	713.0
392	631.0	842.0
393	313.0	899.0
394	777.0	738.0
395	289.0	831.0
396	699.0	923.0
397	323.0	706.0
398	309.0	774.0
399	232.0	689.0
400	232.0	654.0
401	540.0	966.0
402	373.0	830.0
403	137.0	742.0
404	205.0	693.0
405	178.0	829.0
406	203.0	663.0
407	354.0	767.0
408	212.0	657.0
409	370.0	890.0
410	300.0	820.0
411	142.0	643.0
412	274.0	816.0
413	358.0	665.0
414	330.0	387.0
415	152.0	815.0
416	522.0	768.0
417	232.0	688.0
418	179.0	630.0
419	359.0	620.0
420	276.0	725.0
421	269.0	741.0
422	300.0	881.0
423	234.0	495.0
424	848.0	971.0
425	141.0	576.0
426	158.0	722.0
427	140.0	687.0
428	293.0	767.0
429	250.0	870.0
430	571.0	769.0
431	162.0	708.0
432	236.0	891.0
433	142.0	766.0
434	470.0	860.0
435	409.0	941.0
436	293.0	643.0
437	219.0	907.0
438	438.0	500.0
439	381.0	689.0
440	186.0	778.0
441	298.0	706.0
442	149.0	681.0
443	745.0	731.0
444	314.0	700.0
445	252.0	792.0
446	218.0	889.0
447	286.0	867.0
448	331.0	662.0
449	817.0	976.0
450	210.0	767.0
451	60.0	635.0
452	290.0	814.0
453	356.0	864.0
454	377.0	751.0
455	759.0	947.0
456	209.0	914.0
457	348.0	823.0
458	600.0	940.0
459	283.0	741.0
460	219.0	943.0
461	334.0	754.0
462	146.0	701.0
463	245.0	914.0
464	333.0	697.0
465	700.0	975.0
466	354.0	815.0
467	281.0	903.0
468	393.0	876.0
469	313.0	794.0
470	116.0	629.0
471	350.0	746.0
472	457.0	836.0
473	360.0	833.0
474	723.0	793.0
475	322.0	922.0
476	373.0	835.0
477	182.0	725.0
478	612.0	984.0
479	276.0	788.0
480	337.0	871.0
481	157.0	712.0
482	180.0	718.0
483	110.0	751.0
484	478.0	864.0
485	198.0	713.0
486	97.0	782.0
487	245.0	799.0
488	366.0	753.0
489	705.0	860.0
490	251.0	740.0
491	331.0	736.0
492	678.0	955.0
493	357.0	819.0
494	170.0	770.0
495	310.0	710.0
496	138.0	651.0
497	157.0	698.0
498	299.0	520.0
499	253.0	784.0
500	314.0	735.0
501	238.0	903.0
502	753.0	794.0
503	116.0	779.0
504	25.0	788.0
505	115.0	837.0
506	191.0	605.0
507	39.0	803.0
508	269.0	809.0
509	333.0	845.0
510	103.0	581.0
511	390.0	849.0
512	678.0	973.0
513	368.0	739.0
514	218.0	733.0
515	698.0	973.0
516	742.0	935.0
517	338.0	814.0
518	272.0	632.0
519	96.0	621.0
520	200.0	778.0
521	741.0	911.0
522	728.0	990.0
523	374.0	755.0
524	628.0	922.0
525	713.0	842.0
526	426.0	574.0
527	243.0	643.0
528	736.0	891.0
529	379.0	850.0
530	348.0	845.0
531	370.0	701.0
532	281.0	761.0
533	121.0	730.0
534	189.0	703.0
535	405.0	747.0
536	722.0	827.0
537	380.0	638.0
538	192.0	679.0
539	323.0	680.0
540	194.0	723.0
541	675.0	994.0
542	391.0	872.0
543	754.0	984.0
544	319.0	838.0
545	289.0	917.0
546	466.0	764.0
547	409.0	807.0
548	302.0	908.0
549	140.0	817.0
550	303.0	803.0
551	479.0	913.0
552	42.0	548.0
553	349.0	834.0
554	702.0	995.0
555	686.0	901.0
556	379.0	698.0
557	659.0	924.0
558	362.0	867.0
559	290.0	701.0
560	157.0	702.0
561	289.0	978.0
562	239.0	744.0
563	312.0	820.0
564	742.0	986.0
565	195.0	565.0
566	339.0	789.0
567	191.0	700.0
568	341.0	972.0
569	259.0	794.0
570	200.0	725.0
571	219.0	685.0
572	378.0	793.0
573	329.0	846.0
574	326.0	617.0
575	640.0	793.0
576	317.0	866.0
577	279.0	817.0
578	942.0	960.0
579	369.0	728.0
580	688.0	978.0
581	190.0	881.0
582	136.0	608.0
583	184.0	611.0
584	85.0	689.0
585	507.0	533.0
586	326.0	860.0
587	279.0	803.0
588	688.0	984.0
589	653.0	911.0
590	360.0	747.0
591	319.0	744.0
592	390.0	741.0
593	252.0	873.0
594	657.0	981.0
595	104.0	721.0
596	363.0	911.0
597	154.0	695.0
598	667.0	910.0
599	185.0	714.0
600	896.0	805.0
601	73.0	709.0
602	324.0	725.0
603	258.0	810.0
604	233.0	734.0
605	794.0	896.0
606	267.0	664.0
607	84.0	667.0
608	692.0	953.0
609	299.0	858.0
610	193.0	780.0
611	647.0	844.0
612	427.0	680.0
613	227.0	914.0
614	57.0	738.0
615	708.0	994.0
616	249.0	792.0
617	283.0	655.0
618	146.0	694.0
619	263.0	686.0
620	105.0	706.0
621	241.0	837.0
622	312.0	704.0
623	199.0	748.0
624	370.0	882.0
625	227.0	644.0
626	331.0	670.0
627	295.0	836.0
628	59.0	723.0
629	201.0	647.0
630	662.0	737.0
631	249.0	655.0
632	183.0	835.0
633	343.0	587.0
634	285.0	816.0
635	770.0	930.0
636	354.0	804.0
637	331.0	901.0
638	817.0	995.0
639	172.0	670.0
640	397.0	950.0
641	317.0	783.0
642	391.0	900.0
643	309.0	797.0
644	324.0	959.0
645	437.0	695.0
646	77.0	613.0
647	361.0	894.0
648	721.0	986.0
649	272.0	770.0
650	688.0	871.0
651	708.0	917.0
652	380.0	847.0
653	359.0	931.0
654	83.0	847.0
655	185.0	712.0
DEMAND_SECTION
1	0
2	1
3	1
4	1
5	1
6	1
7	1
8	1
9	1
10	1
11	1
12	1
13	1
14	1
15	1
16	1
17	1
18	1
19	1
20	1
21	1
22	1
23	1
24	1
25	1
26	1
27	1
28	1
29	1
30	1
31	1
32	1
33	1
34	1
35	1
36	1
37	1
38	1
39	1
40	1
41	1
42	1
43	1
44	1
45	1
46	1
47	1
48	1
49	1
50	1
51	1
52	1
53	1
54	1
55	1
56	1
57	1
58	1
59	1
60	1
61	1
62	1
63	1
64	1
65	1
66	1
67	1
68	1
69	1
70	1
71	1
72	1
73	1
74	1
75	1
76	1
77	1
78	1
79	1
80	1
81	1
82	1
83	1
84	1
85	1
86	1
87	1
88	1
89	1
90	1
91	1
92	1
93	1
94	1
95	1
96	1
97	1
98	1
99	1
100	1
101	1
102	1
103	1
104	1
105	1
106	1
107	1
108	1
109	1
110	1
111	1
112	1
113	1
114	1
115	1
116	1
117	1
118	1
119	1
120	1
121	1
122	1
123	1
124	1
125	1
126	1
127	1
128	1
129	1
130	1
131	1
132	1
133	1
134	1
135	1
136	1
137	1
138	1
139	1
140	1
141	1
142	1
143	1
144	1
145	1
146	1
147	1
148	1
149	1
150	1
151	1
152	1
153	1
154	1
155	1
156	1
157	1
158	1
159	1
160	1
161	1
162	1
163	1
164	1
165	1
166	1
167	1
168	1
169	1
170	1
171	1
172	1
173	1
174	1
175	1
176	1
177	1
178	1
179	1
180	1
181	1
182	1
183	1
184	1
185	1
186	1
187	1
188	1
189	1
190	1
191	1
192	1
193	1
194	1
195	1
196	1
197	1
198	1
199	1
200	1
201	1
202	1
203	1
204	1
205	1
206	1
207	1
208	1
209	1
210	1
211	1
212	1
213	1
214	1
215	1
216	1
217	1
218	1
219	1
220	1
221	1
222	1
223	1
224	1
225	1
226	1
227	1
228	1
229	1
230	1
231	1
232	1
233	1
234	1
235	1
236	1
237	1
238	1
239	1
240	1
241	1
242	1
243	1
244	1
245	1
246	1
247	1
248	1
249	1
250	1
251	1
252	1
253	1
254	1
255	1
256	1
257	1
258	1
259	1
260	1
261	1
262	1
263	1
264	1
265	1
266	1
267	1
268	1
269	1
270	1
271	1
272	1
273	1
274	1
275	1
276	1
277	1
278	1
279	1
280	1
281	1
282	1
283	1
284	1
285	1
286	1
287	1
288	1
289	1
290	1
291	1
292	1
293	1
294	1
295	1
296	1
297	1
298	1
299	1
300	1
301	1
302	1
303	1
304	1
305	1
306	1
307	1
308	1
309	1
310	1
311	1
312	1
313	1
314	1
315	1
316	1
317	1
318	1
319	1
320	1
321	1
322	1
323	1
324	1
325	1
326	1
327	1
328	1
329	1
330	1
331	1
332	1
333	1
334	1
335	1
336	1
337	1
338	1
339	1
340	1
341	1
342	1
343	1
344	1
345	1
346	1
347	1
348	1
349	1
350	1
351	1
352	1
353	1
354	1
355	1
356	1
357	1
358	1
359	1
360	1
361	1
362	1
363	1
364	1
365	1
366	1
367	1
368	1
369	1
370	1
371	1
372	1
373	1
374	1
375	1
376	1
377	1
378	1
379	1
380	1
381	1
382	1
383	1
384	1
385	1
386	1
387	1
388	1
389	1
390	1
391	1
392	1
393	1
394	1
395	1
396	1
397	1
398	1
399	1
400	1
401	1
402	1
403	1
404	1
405	1
406	1
407	1
408	1
409	1
410	1
411	1
412	1
413	1
414	1
415	1
416	1
417	1
418	1
419	1
420	1
421	1
422	1
423	1
424	1
425	1
426	1
427	1
428	1
429	1
430	1
431	1
432	1
433	1
434	1
435	1
436	1
437	1
438	1
439	1
440	1
441	1
442	1
443	1
444	1
445	1
446	1
447	1
448	1
449	1
450	1
451	1
452	1
453	1
454	1
455	1
456	1
457	1
458	1
459	1
460	1
461	1
462	1
463	1
464	1
465	1
466	1
467	1
468	1
469	1
470	1
471	1
472	1
473	1
474	1
475	1
476	1
477	1
478	1
479	1
480	1
481	1
482	1
483	1
484	1
485	1
486	1
487	1
488	1
489	1
490	1
491	1
492	1
493	1
494	1
495	1
496	1
497	1
498	1
499	1
500	1
501	1
502	1
503	1
504	1
505	1
506	1
507	1
508	1
509	1
510	1
511	1
512	1
513	1
514	1
515	1
516	1
517	1
518	1
519	1
520	1
521	1
522	1
523	1
524	1
525	1
526	1
527	1
528	1
529	1
530	1
531	1
532	1
533	1
534	1
535	1
536	1
537	1
538	1
539	1
540	1
541	1
542	1
543	1
544	1
545	1
546	1
547	1
548	1
549	1
550	1
551	1
552	1
553	1
554	1
555	1
556	1
557	1
558	1
559	1
560	1
561	1
562	1
563	1
564	1
565	1
566	1
567	1
568	1
569	1
570	1
571	1
572	1
573	1
574	1
575	1
576	1
577	1
578	1
579	1
580	1
581	1
582	1
583	1
584	1
585	1
586	1
587	1
588	1
589	1
590	1
591	1
592	1
593	1
594	1
595	1
596	1
597	1
598	1
599	1
600	1
601	1
602	1
603	1
604	1
605	1
606	1
607	1
608	1
609	1
610	1
611	1
612	1
613	1
614	1
615	1
616	1
617	1
618	1
619	1
620	1
621	1
622	1
623	1
624	1
625	1
626	1
627	1
628	1
629	1
630	1
631	1
632	1
633	1
634	1
635	1
636	1
637	1
638	1
639	1
640	1
641	1
642	1
643	1
644	1
645	1
646	1
647	1
648	1
649	1
650	1
651	1
652	1
653	1
654	1
655	1
DEPOT_SECTION
1
-1
EOF
